p edge 20 41 8
v 2 5 13
v 1 11
v 3 7 12 20
v 3 3 8 16
v 2 1 15
v 3 6 9 17
v 2 14 18
v 4 2 4 10 19
e 1 8
e 1 14
e 1 16
e 1 18
e 1 20
e 2 3
e 2 5
e 3 7
e 3 11
e 3 12
e 4 8
e 4 9
e 4 15
e 4 17
e 5 6
e 5 7
e 5 8
e 5 12
e 6 7
e 6 14
e 7 12
e 7 14
e 7 15
e 7 17
e 7 19
e 7 20
e 8 14
e 9 11
e 9 20
e 10 12
e 10 18
e 11 12
e 11 13
e 12 16
e 12 19
e 13 18
e 13 19
e 13 20
e 15 16
e 16 17
e 17 19
